************************************************************************
file with basedata            : md355_.bas
initial value random generator: 1280020751
************************************************************************
projects                      :  1
jobs (incl. supersource/sink ):  22
horizon                       :  143
RESOURCES
  - renewable                 :  2   R
  - nonrenewable              :  2   N
  - doubly constrained        :  0   D
************************************************************************
PROJECT INFORMATION:
pronr.  #jobs rel.date duedate tardcost  MPM-Time
    1     20      0       25       19       25
************************************************************************
PRECEDENCE RELATIONS:
jobnr.    #modes  #successors   successors
   1        1          3           2   3   4
   2        3          3           5   7  12
   3        3          3           7  11  15
   4        3          3           9  10  17
   5        3          1           6
   6        3          3           8  10  13
   7        3          3           9  18  20
   8        3          3           9  16  21
   9        3          1          19
  10        3          3          15  16  21
  11        3          3          12  16  18
  12        3          1          20
  13        3          2          14  19
  14        3          1          17
  15        3          1          19
  16        3          1          20
  17        3          1          18
  18        3          1          21
  19        3          1          22
  20        3          1          22
  21        3          1          22
  22        1          0        
************************************************************************
REQUESTS/DURATIONS:
jobnr. mode duration  R 1  R 2  N 1  N 2
------------------------------------------------------------------------
  1      1     0       0    0    0    0
  2      1     6       0    5    2    7
         2     7       5    0    2    6
         3     8       1    0    2    6
  3      1     4       7    0    9    1
         2     7       0    5    8    1
         3     9       6    0    8    1
  4      1     1       9    0    1    9
         2     3       8    0    1    9
         3     7       8    0    1    8
  5      1     1       4    0    6    6
         2     1       5    0    4    5
         3     6       0    6    4    5
  6      1     7       0    8    6    2
         2     7       6    0    6    2
         3     8       1    0    4    1
  7      1     2       0    4    6    7
         2     3       0    1    5    3
         3     3      10    0    4    4
  8      1     1       0    7    1    6
         2     2       7    0    1    5
         3     5       3    0    1    4
  9      1     3       6    0    8    9
         2     7       0    5    8    8
         3     8       0    3    7    8
 10      1     3       7    0    6    8
         2     7       2    0    5    4
         3     9       0    7    4    3
 11      1     4       0    6    7    6
         2     5       5    0    7    6
         3     7       3    0    4    2
 12      1     2       0    3    3    8
         2     3       4    0    2    5
         3     5       0    2    1    2
 13      1     2       4    0    6    2
         2     2       0    6    7    2
         3     7       0    5    2    2
 14      1     1       0    6    5    2
         2     8       0    5    5    2
         3    10       3    0    5    1
 15      1     1       8    0    9    8
         2     7       0    4    4    4
         3     7       6    0    6    5
 16      1     2       9    0    5    3
         2     3       8    0    5    3
         3    10       7    0    5    2
 17      1     1       0    4    6    7
         2     3       0    2    5    5
         3     7       9    0    4    4
 18      1     1       5    0    5    2
         2     4       4    0    4    1
         3     9       4    0    3    1
 19      1     2       6    0    5    7
         2     5       0    3    5    7
         3     7       6    0    4    6
 20      1     3       7    0    5    2
         2     4       6    0    4    1
         3     4       0    4    4    2
 21      1     6       5    0    4    5
         2     7       0    8    3    5
         3     7       4    0    3    4
 22      1     0       0    0    0    0
************************************************************************
RESOURCEAVAILABILITIES:
  R 1  R 2  N 1  N 2
   22   15   82   78
************************************************************************
MAXIMAL LAGS:
from  to  type  delay
    1   12   ES      0
    1    2   ES      0
    2   12   ES      0
    1    3   ES      0
    3   12   ES      0
    1    4   ES      0
    4   12   ES      0
    1    5   ES      0
    5   12   ES      0
    1    6   ES      0
    6   12   ES      0
    1    7   ES      0
    7   12   ES      0
    1    8   ES      0
    8   12   ES      0
    1    9   ES      0
    9   12   ES      0
    1   10   ES      0
   10   12   ES      0
    1   11   ES      0
   11   12   ES      0
    1   12   ES      0
    2    5   SS      7
    2    5   SE     -5
    2    5   ES    -12
    2    5   EE      0
    2    7   SS     -5
    2    7   SE     12
    2    7   ES     -1
    2    7   EE      3
    3    7   SS      5
    3    7   SE      8
    3    7   ES     10
    3    7   EE    -12
    3   11   SS      9
    3   11   SE     -5
    3   11   ES      2
    3   11   EE      5
    3   15   SS      6
    3   15   SE     12
    3   15   ES     -9
    3   15   EE      9
    4    9   SS     -8
    4    9   SE     -9
    4    9   ES     -5
    4    9   EE      9
    4   10   SS      7
    4   10   SE     11
    4   10   ES     10
    4   10   EE      2
    4   17   SS     -4
    4   17   SE     -5
    4   17   ES     11
    4   17   EE      0
    5    6   SS      7
    5    6   SE      6
    5    6   ES    -12
    5    6   EE     -2
    6    8   SS     -2
    6    8   SE      5
    6    8   ES     -2
    6    8   EE     -1
    6   10   SS      3
    6   10   SE     -1
    6   10   ES      6
    6   10   EE      6
    6   13   SS     -3
    6   13   SE     10
    6   13   ES     12
    6   13   EE    -12
    7    9   SS      5
    7    9   SE     12
    7    9   ES     -4
    7    9   EE     -7
    7   18   SS      6
    7   18   SE     11
    7   18   ES    -12
    7   18   EE      1
    7   20   SS      7
    7   20   SE      1
    7   20   ES      6
    7   20   EE      8
    8    9   SS    -11
    8    9   SE     10
    8    9   ES     -3
    8    9   EE     -1
    8   16   SS     -8
    8   16   SE      4
    8   16   ES      7
    8   16   EE      5
    8   21   SS      1
    8   21   SE    -12
   21    8   SE      0
    8   21   ES      0
    8   21   EE    -10
    9   19   SS     11
    9   19   SE    -11
    9   19   ES      0
    9   19   EE     -2
   10   15   SS      1
   10   15   SE      2
   10   15   ES     -5
   10   15   EE     -5
   10   16   SS      2
   10   16   SE     12
   10   16   ES     -4
   10   16   EE     -1
   10   21   SS      2
   10   21   SE    -11
   10   21   ES    -10
   10   21   EE      0
   11   16   SS     -2
   11   16   SE     -8
   11   16   ES      2
   11   16   EE      1
   11   18   SS    -10
   11   18   SE     -5
   11   18   ES      1
   11   18   EE      9
   12   20   SS      5
   12   20   SE    -10
   12   20   ES     -3
   12   20   EE      6
   13   14   SS      5
   13   14   SE    -11
   13   14   ES     -8
   13   14   EE     -1
   13   19   SS     -5
   13   19   SE      8
   13   19   ES    -12
   13   19   EE      4
   14   17   SS     -4
   14   17   SE     -6
   14   17   ES      3
   14   17   EE     11
   15   19   SS      0
   15   19   SE      7
   15   19   ES      7
   15   19   EE     -7
   16   20   SS      8
   16   20   SE      7
   16   20   ES      0
   16   20   EE     -3
   17   18   SS     -4
   17   18   SE     -3
   17   18   ES      2
   17   18   EE     12
   18   21   SS      3
   18   21   SE     -7
   18   21   ES     -2
   18   21   EE    -12
   19   22   SS      5
   19   22   SE     -3
   19   22   ES      9
   19   22   EE     -7
   20   22   SS     -5
   20   22   SE     11
   20   22   ES     -8
   20   22   EE     -4
   21   22   SS     -7
   21   22   SE     -6
   21   22   ES     -3
   21   22   EE      4
************************************************************************
